1533.44 0
0 29 79 15 154 37 88 138 122 140 114 142 156 93 2 0
0 97 161 9 109 39 75 162 110 118 146 18 72 0
0 151 3 181 107 63 49 159 67 53 158 194 193 0
0 105 198 192 184 197 196 86 87 111 46 175 60 0
0 81 168 57 189 31 131 80 10 77 129 71 100 26 0
0 33 195 104 183 144 145 135 92 148 163 25 56 106 44 0
0 51 178 35 180 150 130 40 76 17 95 0
0 6 96 182 74 24 73 147 32 126 0
0 66 199 43 42 68 143 89 137 113 91 141 22 186 112 0
0 188 16 117 55 187 50 119 165 170 164 85 134 84 133 177 78 0
0 30 48 171 47 174 82 121 21 172 157 0
0 149 102 8 19 70 128 123 124 20 166 36 155 173 139 54 152 0
0 125 98 45 58 27 99 179 167 176 65 34 127 0
0 12 169 38 52 11 108 69 14 132 7 0
0 4 13 83 153 5 103 59 120 94 64 28 101 0
0 61 1 191 136 190 41 90 115 185 62 116 23 160 0